results/x-long/X-n134-k13.vrp_seed-5.out
10917	1000
