results/x-long/X-n134-k13.vrp_seed-5.vrp.sol
Route #1: 85 106 45 21 46 99 104 57 119
Route #2: 83 38 50 35 26 74 87 78
Route #3: 127 112 64 117 49 69 1 29 31
Route #4: 48 79 43 36 111 120 71 61 92
Route #5: 100 122 11 114 131 101 52 40
Route #6: 47 9 2 39 73 18 96 59
Route #7: 24 37 88 102 94 93 42 65 28 75 98 23 77 53 66 90
Route #8: 103 10 62 32 54 110 123 56
Route #9: 58 34 41 105 25 113 89 116 129
Route #10: 13 63 15 81 84 107 70 4 27 22 55 126 20 67 44 8 30 68 7 121 5 97 6 108
Route #11: 118 91 51 16 14 60 95
Route #12: 128 125 115 80 130 19 17 109 132
Route #13: 76 82 133 12 124 33 86 72 3
Cost 10917.000000